(set-logic ALL)
(declare-fun seed0_T_1 () Bool)
(declare-fun seed0_var_0xINPUT_82958 () String)
(assert (and (or (= seed0_T_1 (not (= "" seed0_var_0xINPUT_82958))) (str.contains (str.++ seed0_var_0xINPUT_82958 "p") (str.++ seed0_var_0xINPUT_82958 "PfMHaiVUsluJTm6S0"))) (or seed0_T_1 (or (str.prefixof (str.++ seed0_var_0xINPUT_82958 "LH07UXwWqjEaVNo39") (str.++ seed0_var_0xINPUT_82958 "KVaOe16PZuz")) (str.contains (str.++ seed0_var_0xINPUT_82958 "tli0T5aEWnyZ6U8MFAK") (str.++ seed0_var_0xINPUT_82958 "B5V8GCUyK1ahlJq"))))))
(check-sat)
(exit)